p cnf 250 1240
1 6 11 16 21 0
-1 -6 0
-1 -11 0
-1 -16 0
-1 -21 0
-6 -11 0
-6 -16 0
-6 -21 0
-11 -16 0
-11 -21 0
-16 -21 0
26 31 36 41 46 0
-26 -31 0
-26 -36 0
-26 -41 0
-26 -46 0
-31 -36 0
-31 -41 0
-31 -46 0
-36 -41 0
-36 -46 0
-41 -46 0
51 56 61 66 71 0
-51 -56 0
-51 -61 0
-51 -66 0
-51 -71 0
-56 -61 0
-56 -66 0
-56 -71 0
-61 -66 0
-61 -71 0
-66 -71 0
76 81 86 91 96 0
-76 -81 0
-76 -86 0
-76 -91 0
-76 -96 0
-81 -86 0
-81 -91 0
-81 -96 0
-86 -91 0
-86 -96 0
-91 -96 0
101 106 111 116 121 0
-101 -106 0
-101 -111 0
-101 -116 0
-101 -121 0
-106 -111 0
-106 -116 0
-106 -121 0
-111 -116 0
-111 -121 0
-116 -121 0
2 7 12 17 22 0
-2 -7 0
-2 -12 0
-2 -17 0
-2 -22 0
-7 -12 0
-7 -17 0
-7 -22 0
-12 -17 0
-12 -22 0
-17 -22 0
27 32 37 42 47 0
-27 -32 0
-27 -37 0
-27 -42 0
-27 -47 0
-32 -37 0
-32 -42 0
-32 -47 0
-37 -42 0
-37 -47 0
-42 -47 0
52 57 62 67 72 0
-52 -57 0
-52 -62 0
-52 -67 0
-52 -72 0
-57 -62 0
-57 -67 0
-57 -72 0
-62 -67 0
-62 -72 0
-67 -72 0
77 82 87 92 97 0
-77 -82 0
-77 -87 0
-77 -92 0
-77 -97 0
-82 -87 0
-82 -92 0
-82 -97 0
-87 -92 0
-87 -97 0
-92 -97 0
102 107 112 117 122 0
-102 -107 0
-102 -112 0
-102 -117 0
-102 -122 0
-107 -112 0
-107 -117 0
-107 -122 0
-112 -117 0
-112 -122 0
-117 -122 0
3 8 13 18 23 0
-3 -8 0
-3 -13 0
-3 -18 0
-3 -23 0
-8 -13 0
-8 -18 0
-8 -23 0
-13 -18 0
-13 -23 0
-18 -23 0
28 33 38 43 48 0
-28 -33 0
-28 -38 0
-28 -43 0
-28 -48 0
-33 -38 0
-33 -43 0
-33 -48 0
-38 -43 0
-38 -48 0
-43 -48 0
53 58 63 68 73 0
-53 -58 0
-53 -63 0
-53 -68 0
-53 -73 0
-58 -63 0
-58 -68 0
-58 -73 0
-63 -68 0
-63 -73 0
-68 -73 0
78 83 88 93 98 0
-78 -83 0
-78 -88 0
-78 -93 0
-78 -98 0
-83 -88 0
-83 -93 0
-83 -98 0
-88 -93 0
-88 -98 0
-93 -98 0
103 108 113 118 123 0
-103 -108 0
-103 -113 0
-103 -118 0
-103 -123 0
-108 -113 0
-108 -118 0
-108 -123 0
-113 -118 0
-113 -123 0
-118 -123 0
4 9 14 19 24 0
-4 -9 0
-4 -14 0
-4 -19 0
-4 -24 0
-9 -14 0
-9 -19 0
-9 -24 0
-14 -19 0
-14 -24 0
-19 -24 0
29 34 39 44 49 0
-29 -34 0
-29 -39 0
-29 -44 0
-29 -49 0
-34 -39 0
-34 -44 0
-34 -49 0
-39 -44 0
-39 -49 0
-44 -49 0
54 59 64 69 74 0
-54 -59 0
-54 -64 0
-54 -69 0
-54 -74 0
-59 -64 0
-59 -69 0
-59 -74 0
-64 -69 0
-64 -74 0
-69 -74 0
79 84 89 94 99 0
-79 -84 0
-79 -89 0
-79 -94 0
-79 -99 0
-84 -89 0
-84 -94 0
-84 -99 0
-89 -94 0
-89 -99 0
-94 -99 0
104 109 114 119 124 0
-104 -109 0
-104 -114 0
-104 -119 0
-104 -124 0
-109 -114 0
-109 -119 0
-109 -124 0
-114 -119 0
-114 -124 0
-119 -124 0
5 10 15 20 25 0
-5 -10 0
-5 -15 0
-5 -20 0
-5 -25 0
-10 -15 0
-10 -20 0
-10 -25 0
-15 -20 0
-15 -25 0
-20 -25 0
30 35 40 45 50 0
-30 -35 0
-30 -40 0
-30 -45 0
-30 -50 0
-35 -40 0
-35 -45 0
-35 -50 0
-40 -45 0
-40 -50 0
-45 -50 0
55 60 65 70 75 0
-55 -60 0
-55 -65 0
-55 -70 0
-55 -75 0
-60 -65 0
-60 -70 0
-60 -75 0
-65 -70 0
-65 -75 0
-70 -75 0
80 85 90 95 100 0
-80 -85 0
-80 -90 0
-80 -95 0
-80 -100 0
-85 -90 0
-85 -95 0
-85 -100 0
-90 -95 0
-90 -100 0
-95 -100 0
105 110 115 120 125 0
-105 -110 0
-105 -115 0
-105 -120 0
-105 -125 0
-110 -115 0
-110 -120 0
-110 -125 0
-115 -120 0
-115 -125 0
-120 -125 0
1 2 3 4 5 0
-1 -2 0
-1 -3 0
-1 -4 0
-1 -5 0
-2 -3 0
-2 -4 0
-2 -5 0
-3 -4 0
-3 -5 0
-4 -5 0
6 7 8 9 10 0
-6 -7 0
-6 -8 0
-6 -9 0
-6 -10 0
-7 -8 0
-7 -9 0
-7 -10 0
-8 -9 0
-8 -10 0
-9 -10 0
11 12 13 14 15 0
-11 -12 0
-11 -13 0
-11 -14 0
-11 -15 0
-12 -13 0
-12 -14 0
-12 -15 0
-13 -14 0
-13 -15 0
-14 -15 0
16 17 18 19 20 0
-16 -17 0
-16 -18 0
-16 -19 0
-16 -20 0
-17 -18 0
-17 -19 0
-17 -20 0
-18 -19 0
-18 -20 0
-19 -20 0
21 22 23 24 25 0
-21 -22 0
-21 -23 0
-21 -24 0
-21 -25 0
-22 -23 0
-22 -24 0
-22 -25 0
-23 -24 0
-23 -25 0
-24 -25 0
26 27 28 29 30 0
-26 -27 0
-26 -28 0
-26 -29 0
-26 -30 0
-27 -28 0
-27 -29 0
-27 -30 0
-28 -29 0
-28 -30 0
-29 -30 0
31 32 33 34 35 0
-31 -32 0
-31 -33 0
-31 -34 0
-31 -35 0
-32 -33 0
-32 -34 0
-32 -35 0
-33 -34 0
-33 -35 0
-34 -35 0
36 37 38 39 40 0
-36 -37 0
-36 -38 0
-36 -39 0
-36 -40 0
-37 -38 0
-37 -39 0
-37 -40 0
-38 -39 0
-38 -40 0
-39 -40 0
41 42 43 44 45 0
-41 -42 0
-41 -43 0
-41 -44 0
-41 -45 0
-42 -43 0
-42 -44 0
-42 -45 0
-43 -44 0
-43 -45 0
-44 -45 0
46 47 48 49 50 0
-46 -47 0
-46 -48 0
-46 -49 0
-46 -50 0
-47 -48 0
-47 -49 0
-47 -50 0
-48 -49 0
-48 -50 0
-49 -50 0
51 52 53 54 55 0
-51 -52 0
-51 -53 0
-51 -54 0
-51 -55 0
-52 -53 0
-52 -54 0
-52 -55 0
-53 -54 0
-53 -55 0
-54 -55 0
56 57 58 59 60 0
-56 -57 0
-56 -58 0
-56 -59 0
-56 -60 0
-57 -58 0
-57 -59 0
-57 -60 0
-58 -59 0
-58 -60 0
-59 -60 0
61 62 63 64 65 0
-61 -62 0
-61 -63 0
-61 -64 0
-61 -65 0
-62 -63 0
-62 -64 0
-62 -65 0
-63 -64 0
-63 -65 0
-64 -65 0
66 67 68 69 70 0
-66 -67 0
-66 -68 0
-66 -69 0
-66 -70 0
-67 -68 0
-67 -69 0
-67 -70 0
-68 -69 0
-68 -70 0
-69 -70 0
71 72 73 74 75 0
-71 -72 0
-71 -73 0
-71 -74 0
-71 -75 0
-72 -73 0
-72 -74 0
-72 -75 0
-73 -74 0
-73 -75 0
-74 -75 0
76 77 78 79 80 0
-76 -77 0
-76 -78 0
-76 -79 0
-76 -80 0
-77 -78 0
-77 -79 0
-77 -80 0
-78 -79 0
-78 -80 0
-79 -80 0
81 82 83 84 85 0
-81 -82 0
-81 -83 0
-81 -84 0
-81 -85 0
-82 -83 0
-82 -84 0
-82 -85 0
-83 -84 0
-83 -85 0
-84 -85 0
86 87 88 89 90 0
-86 -87 0
-86 -88 0
-86 -89 0
-86 -90 0
-87 -88 0
-87 -89 0
-87 -90 0
-88 -89 0
-88 -90 0
-89 -90 0
91 92 93 94 95 0
-91 -92 0
-91 -93 0
-91 -94 0
-91 -95 0
-92 -93 0
-92 -94 0
-92 -95 0
-93 -94 0
-93 -95 0
-94 -95 0
96 97 98 99 100 0
-96 -97 0
-96 -98 0
-96 -99 0
-96 -100 0
-97 -98 0
-97 -99 0
-97 -100 0
-98 -99 0
-98 -100 0
-99 -100 0
101 102 103 104 105 0
-101 -102 0
-101 -103 0
-101 -104 0
-101 -105 0
-102 -103 0
-102 -104 0
-102 -105 0
-103 -104 0
-103 -105 0
-104 -105 0
106 107 108 109 110 0
-106 -107 0
-106 -108 0
-106 -109 0
-106 -110 0
-107 -108 0
-107 -109 0
-107 -110 0
-108 -109 0
-108 -110 0
-109 -110 0
111 112 113 114 115 0
-111 -112 0
-111 -113 0
-111 -114 0
-111 -115 0
-112 -113 0
-112 -114 0
-112 -115 0
-113 -114 0
-113 -115 0
-114 -115 0
116 117 118 119 120 0
-116 -117 0
-116 -118 0
-116 -119 0
-116 -120 0
-117 -118 0
-117 -119 0
-117 -120 0
-118 -119 0
-118 -120 0
-119 -120 0
121 122 123 124 125 0
-121 -122 0
-121 -123 0
-121 -124 0
-121 -125 0
-122 -123 0
-122 -124 0
-122 -125 0
-123 -124 0
-123 -125 0
-124 -125 0
-26 1 0
-27 2 0
-28 3 0
-29 4 0
-30 5 0
-31 101 0
-32 102 0
-33 103 0
-34 104 0
-35 105 0
-36 51 0
-37 52 0
-38 53 0
-39 54 0
-40 55 0
-6 12 0
-7 13 0
-8 14 0
-9 15 0
-12 6 0
-13 7 0
-14 8 0
-15 9 0
-6 56 0
-7 57 0
-8 58 0
-9 59 0
-10 60 0
-76 106 0
-77 107 0
-78 108 0
-79 109 0
-80 110 0
-16 81 0
-17 82 0
-18 83 0
-19 84 0
-20 85 0
63 0
41 0
-86 112 0
-87 111 113 0
-88 112 114 0
-89 113 115 0
-90 114 0
-116 82 0
-117 81 83 0
-118 82 84 0
-119 83 85 0
-120 84 0
-96 66 0
-97 67 0
-98 68 0
-99 69 0
-100 70 0
-46 91 0
-47 92 0
-48 93 0
-49 94 0
-50 95 0
-41 22 0
-42 21 23 0
-43 22 24 0
-44 23 25 0
-45 24 0
-86 72 0
-87 71 73 0
-88 72 74 0
-89 73 75 0
-90 74 0
126 131 136 141 146 0
-126 -131 0
-126 -136 0
-126 -141 0
-126 -146 0
-131 -136 0
-131 -141 0
-131 -146 0
-136 -141 0
-136 -146 0
-141 -146 0
151 156 161 166 171 0
-151 -156 0
-151 -161 0
-151 -166 0
-151 -171 0
-156 -161 0
-156 -166 0
-156 -171 0
-161 -166 0
-161 -171 0
-166 -171 0
176 181 186 191 196 0
-176 -181 0
-176 -186 0
-176 -191 0
-176 -196 0
-181 -186 0
-181 -191 0
-181 -196 0
-186 -191 0
-186 -196 0
-191 -196 0
201 206 211 216 221 0
-201 -206 0
-201 -211 0
-201 -216 0
-201 -221 0
-206 -211 0
-206 -216 0
-206 -221 0
-211 -216 0
-211 -221 0
-216 -221 0
226 231 236 241 246 0
-226 -231 0
-226 -236 0
-226 -241 0
-226 -246 0
-231 -236 0
-231 -241 0
-231 -246 0
-236 -241 0
-236 -246 0
-241 -246 0
127 132 137 142 147 0
-127 -132 0
-127 -137 0
-127 -142 0
-127 -147 0
-132 -137 0
-132 -142 0
-132 -147 0
-137 -142 0
-137 -147 0
-142 -147 0
152 157 162 167 172 0
-152 -157 0
-152 -162 0
-152 -167 0
-152 -172 0
-157 -162 0
-157 -167 0
-157 -172 0
-162 -167 0
-162 -172 0
-167 -172 0
177 182 187 192 197 0
-177 -182 0
-177 -187 0
-177 -192 0
-177 -197 0
-182 -187 0
-182 -192 0
-182 -197 0
-187 -192 0
-187 -197 0
-192 -197 0
202 207 212 217 222 0
-202 -207 0
-202 -212 0
-202 -217 0
-202 -222 0
-207 -212 0
-207 -217 0
-207 -222 0
-212 -217 0
-212 -222 0
-217 -222 0
227 232 237 242 247 0
-227 -232 0
-227 -237 0
-227 -242 0
-227 -247 0
-232 -237 0
-232 -242 0
-232 -247 0
-237 -242 0
-237 -247 0
-242 -247 0
128 133 138 143 148 0
-128 -133 0
-128 -138 0
-128 -143 0
-128 -148 0
-133 -138 0
-133 -143 0
-133 -148 0
-138 -143 0
-138 -148 0
-143 -148 0
153 158 163 168 173 0
-153 -158 0
-153 -163 0
-153 -168 0
-153 -173 0
-158 -163 0
-158 -168 0
-158 -173 0
-163 -168 0
-163 -173 0
-168 -173 0
178 183 188 193 198 0
-178 -183 0
-178 -188 0
-178 -193 0
-178 -198 0
-183 -188 0
-183 -193 0
-183 -198 0
-188 -193 0
-188 -198 0
-193 -198 0
203 208 213 218 223 0
-203 -208 0
-203 -213 0
-203 -218 0
-203 -223 0
-208 -213 0
-208 -218 0
-208 -223 0
-213 -218 0
-213 -223 0
-218 -223 0
228 233 238 243 248 0
-228 -233 0
-228 -238 0
-228 -243 0
-228 -248 0
-233 -238 0
-233 -243 0
-233 -248 0
-238 -243 0
-238 -248 0
-243 -248 0
129 134 139 144 149 0
-129 -134 0
-129 -139 0
-129 -144 0
-129 -149 0
-134 -139 0
-134 -144 0
-134 -149 0
-139 -144 0
-139 -149 0
-144 -149 0
154 159 164 169 174 0
-154 -159 0
-154 -164 0
-154 -169 0
-154 -174 0
-159 -164 0
-159 -169 0
-159 -174 0
-164 -169 0
-164 -174 0
-169 -174 0
179 184 189 194 199 0
-179 -184 0
-179 -189 0
-179 -194 0
-179 -199 0
-184 -189 0
-184 -194 0
-184 -199 0
-189 -194 0
-189 -199 0
-194 -199 0
204 209 214 219 224 0
-204 -209 0
-204 -214 0
-204 -219 0
-204 -224 0
-209 -214 0
-209 -219 0
-209 -224 0
-214 -219 0
-214 -224 0
-219 -224 0
229 234 239 244 249 0
-229 -234 0
-229 -239 0
-229 -244 0
-229 -249 0
-234 -239 0
-234 -244 0
-234 -249 0
-239 -244 0
-239 -249 0
-244 -249 0
130 135 140 145 150 0
-130 -135 0
-130 -140 0
-130 -145 0
-130 -150 0
-135 -140 0
-135 -145 0
-135 -150 0
-140 -145 0
-140 -150 0
-145 -150 0
155 160 165 170 175 0
-155 -160 0
-155 -165 0
-155 -170 0
-155 -175 0
-160 -165 0
-160 -170 0
-160 -175 0
-165 -170 0
-165 -175 0
-170 -175 0
180 185 190 195 200 0
-180 -185 0
-180 -190 0
-180 -195 0
-180 -200 0
-185 -190 0
-185 -195 0
-185 -200 0
-190 -195 0
-190 -200 0
-195 -200 0
205 210 215 220 225 0
-205 -210 0
-205 -215 0
-205 -220 0
-205 -225 0
-210 -215 0
-210 -220 0
-210 -225 0
-215 -220 0
-215 -225 0
-220 -225 0
230 235 240 245 250 0
-230 -235 0
-230 -240 0
-230 -245 0
-230 -250 0
-235 -240 0
-235 -245 0
-235 -250 0
-240 -245 0
-240 -250 0
-245 -250 0
126 127 128 129 130 0
-126 -127 0
-126 -128 0
-126 -129 0
-126 -130 0
-127 -128 0
-127 -129 0
-127 -130 0
-128 -129 0
-128 -130 0
-129 -130 0
131 132 133 134 135 0
-131 -132 0
-131 -133 0
-131 -134 0
-131 -135 0
-132 -133 0
-132 -134 0
-132 -135 0
-133 -134 0
-133 -135 0
-134 -135 0
136 137 138 139 140 0
-136 -137 0
-136 -138 0
-136 -139 0
-136 -140 0
-137 -138 0
-137 -139 0
-137 -140 0
-138 -139 0
-138 -140 0
-139 -140 0
141 142 143 144 145 0
-141 -142 0
-141 -143 0
-141 -144 0
-141 -145 0
-142 -143 0
-142 -144 0
-142 -145 0
-143 -144 0
-143 -145 0
-144 -145 0
146 147 148 149 150 0
-146 -147 0
-146 -148 0
-146 -149 0
-146 -150 0
-147 -148 0
-147 -149 0
-147 -150 0
-148 -149 0
-148 -150 0
-149 -150 0
151 152 153 154 155 0
-151 -152 0
-151 -153 0
-151 -154 0
-151 -155 0
-152 -153 0
-152 -154 0
-152 -155 0
-153 -154 0
-153 -155 0
-154 -155 0
156 157 158 159 160 0
-156 -157 0
-156 -158 0
-156 -159 0
-156 -160 0
-157 -158 0
-157 -159 0
-157 -160 0
-158 -159 0
-158 -160 0
-159 -160 0
161 162 163 164 165 0
-161 -162 0
-161 -163 0
-161 -164 0
-161 -165 0
-162 -163 0
-162 -164 0
-162 -165 0
-163 -164 0
-163 -165 0
-164 -165 0
166 167 168 169 170 0
-166 -167 0
-166 -168 0
-166 -169 0
-166 -170 0
-167 -168 0
-167 -169 0
-167 -170 0
-168 -169 0
-168 -170 0
-169 -170 0
171 172 173 174 175 0
-171 -172 0
-171 -173 0
-171 -174 0
-171 -175 0
-172 -173 0
-172 -174 0
-172 -175 0
-173 -174 0
-173 -175 0
-174 -175 0
176 177 178 179 180 0
-176 -177 0
-176 -178 0
-176 -179 0
-176 -180 0
-177 -178 0
-177 -179 0
-177 -180 0
-178 -179 0
-178 -180 0
-179 -180 0
181 182 183 184 185 0
-181 -182 0
-181 -183 0
-181 -184 0
-181 -185 0
-182 -183 0
-182 -184 0
-182 -185 0
-183 -184 0
-183 -185 0
-184 -185 0
186 187 188 189 190 0
-186 -187 0
-186 -188 0
-186 -189 0
-186 -190 0
-187 -188 0
-187 -189 0
-187 -190 0
-188 -189 0
-188 -190 0
-189 -190 0
191 192 193 194 195 0
-191 -192 0
-191 -193 0
-191 -194 0
-191 -195 0
-192 -193 0
-192 -194 0
-192 -195 0
-193 -194 0
-193 -195 0
-194 -195 0
196 197 198 199 200 0
-196 -197 0
-196 -198 0
-196 -199 0
-196 -200 0
-197 -198 0
-197 -199 0
-197 -200 0
-198 -199 0
-198 -200 0
-199 -200 0
201 202 203 204 205 0
-201 -202 0
-201 -203 0
-201 -204 0
-201 -205 0
-202 -203 0
-202 -204 0
-202 -205 0
-203 -204 0
-203 -205 0
-204 -205 0
206 207 208 209 210 0
-206 -207 0
-206 -208 0
-206 -209 0
-206 -210 0
-207 -208 0
-207 -209 0
-207 -210 0
-208 -209 0
-208 -210 0
-209 -210 0
211 212 213 214 215 0
-211 -212 0
-211 -213 0
-211 -214 0
-211 -215 0
-212 -213 0
-212 -214 0
-212 -215 0
-213 -214 0
-213 -215 0
-214 -215 0
216 217 218 219 220 0
-216 -217 0
-216 -218 0
-216 -219 0
-216 -220 0
-217 -218 0
-217 -219 0
-217 -220 0
-218 -219 0
-218 -220 0
-219 -220 0
221 222 223 224 225 0
-221 -222 0
-221 -223 0
-221 -224 0
-221 -225 0
-222 -223 0
-222 -224 0
-222 -225 0
-223 -224 0
-223 -225 0
-224 -225 0
226 227 228 229 230 0
-226 -227 0
-226 -228 0
-226 -229 0
-226 -230 0
-227 -228 0
-227 -229 0
-227 -230 0
-228 -229 0
-228 -230 0
-229 -230 0
231 232 233 234 235 0
-231 -232 0
-231 -233 0
-231 -234 0
-231 -235 0
-232 -233 0
-232 -234 0
-232 -235 0
-233 -234 0
-233 -235 0
-234 -235 0
236 237 238 239 240 0
-236 -237 0
-236 -238 0
-236 -239 0
-236 -240 0
-237 -238 0
-237 -239 0
-237 -240 0
-238 -239 0
-238 -240 0
-239 -240 0
241 242 243 244 245 0
-241 -242 0
-241 -243 0
-241 -244 0
-241 -245 0
-242 -243 0
-242 -244 0
-242 -245 0
-243 -244 0
-243 -245 0
-244 -245 0
246 247 248 249 250 0
-246 -247 0
-246 -248 0
-246 -249 0
-246 -250 0
-247 -248 0
-247 -249 0
-247 -250 0
-248 -249 0
-248 -250 0
-249 -250 0
-151 126 0
-152 127 0
-153 128 0
-154 129 0
-155 130 0
-156 226 0
-157 227 0
-158 228 0
-159 229 0
-160 230 0
-161 176 0
-162 177 0
-163 178 0
-164 179 0
-165 180 0
-131 137 0
-132 138 0
-133 139 0
-134 140 0
-137 131 0
-138 132 0
-139 133 0
-140 134 0
-131 181 0
-132 182 0
-133 183 0
-134 184 0
-135 185 0
-201 231 0
-202 232 0
-203 233 0
-204 234 0
-205 235 0
-141 206 0
-142 207 0
-143 208 0
-144 209 0
-145 210 0
188 0
166 0
-211 237 0
-212 236 238 0
-213 237 239 0
-214 238 240 0
-215 239 0
-241 207 0
-242 206 208 0
-243 207 209 0
-244 208 210 0
-245 209 0
-221 191 0
-222 192 0
-223 193 0
-224 194 0
-225 195 0
-171 216 0
-172 217 0
-173 218 0
-174 219 0
-175 220 0
-166 147 0
-167 146 148 0
-168 147 149 0
-169 148 150 0
-170 149 0
-211 197 0
-212 196 198 0
-213 197 199 0
-214 198 200 0
-215 199 0
